data;
set WEIGHTS := x0 x1 x2 x3 x4 x5 x6 x7 x8 x9 x10 x11 x12 x13 x14 x15 x16 x17 x18 x19 x20 x21 x22 x23 x24 x25 x26 x27 x28 x29;
param:  cost :=
  x0  930
  x1  931
  x2  932
  x3  933
  x4  934
  x5  935
  x6  936
  x7  937
  x8  938
  x9  939
  x10  940
  x11  941
  x12  942
  x13  943
  x14  944
  x15  945
  x16  946
  x17  947
  x18  948
  x19  949
  x20  950
  x21  951
  x22  952
  x23  953
  x24  954
  x25  955
  x26  956
  x27  957
  x28  958
  x29  959;
param cap := 13920;